clingo version 5.7.1
Reading from Calendario.cl
Solving...
Answer: 1
partita(milan,inter,sansiro,3) partita(milan,juventus,sansiro,17) partita(milan,atalanta,sansiro,5) partita(milan,bologna,sansiro,4) partita(milan,roma,sansiro,8) partita(milan,lazio,sansiro,6) partita(milan,fiorentina,sansiro,11) partita(milan,napoli,sansiro,18) partita(milan,genoa,sansiro,2) partita(inter,milan,sansiro,12) partita(inter,juventus,sansiro,11) partita(inter,atalanta,sansiro,18) partita(inter,bologna,sansiro,5) partita(inter,roma,sansiro,2) partita(inter,lazio,sansiro,10) partita(inter,fiorentina,sansiro,9) partita(inter,napoli,sansiro,16) partita(inter,genoa,sansiro,13) partita(juventus,inter,allianz,1) partita(juventus,milan,allianz,9) partita(juventus,atalanta,allianz,13) partita(juventus,bologna,allianz,3) partita(juventus,roma,allianz,14) partita(juventus,lazio,allianz,15) partita(juventus,fiorentina,allianz,18) partita(juventus,napoli,allianz,12) partita(juventus,genoa,allianz,7) partita(bologna,inter,dallara,15) partita(bologna,milan,dallara,13) partita(bologna,juventus,dallara,10) partita(bologna,atalanta,dallara,12) partita(bologna,roma,dallara,6) partita(bologna,lazio,dallara,16) partita(bologna,fiorentina,dallara,7) partita(bologna,napoli,dallara,11) partita(bologna,genoa,dallara,14) partita(atalanta,inter,gewiss,7) partita(atalanta,milan,gewiss,16) partita(atalanta,juventus,gewiss,4) partita(atalanta,bologna,gewiss,2) partita(atalanta,roma,gewiss,10) partita(atalanta,lazio,gewiss,1) partita(atalanta,fiorentina,gewiss,15) partita(atalanta,napoli,gewiss,8) partita(atalanta,genoa,gewiss,9) partita(roma,inter,olimpicoRoma,17) partita(roma,milan,olimpicoRoma,15) partita(roma,juventus,olimpicoRoma,5) partita(roma,atalanta,olimpicoRoma,3) partita(roma,bologna,olimpicoRoma,18) partita(roma,lazio,olimpicoRoma,12) partita(roma,fiorentina,olimpicoRoma,4) partita(roma,napoli,olimpicoRoma,13) partita(roma,genoa,olimpicoRoma,1) partita(lazio,inter,olimpicoRoma,8) partita(lazio,milan,olimpicoRoma,14) partita(lazio,juventus,olimpicoRoma,2) partita(lazio,atalanta,olimpicoRoma,11) partita(lazio,bologna,olimpicoRoma,9) partita(lazio,roma,olimpicoRoma,7) partita(lazio,fiorentina,olimpicoRoma,3) partita(lazio,napoli,olimpicoRoma,5) partita(lazio,genoa,olimpicoRoma,18) partita(fiorentina,inter,franchi,14) partita(fiorentina,milan,franchi,1) partita(fiorentina,juventus,franchi,8) partita(fiorentina,atalanta,franchi,6) partita(fiorentina,bologna,franchi,17) partita(fiorentina,roma,franchi,16) partita(fiorentina,lazio,franchi,13) partita(fiorentina,napoli,franchi,2) partita(fiorentina,genoa,franchi,5) partita(napoli,inter,maradona,4) partita(napoli,milan,maradona,7) partita(napoli,juventus,maradona,6) partita(napoli,atalanta,maradona,14) partita(napoli,bologna,maradona,1) partita(napoli,roma,maradona,9) partita(napoli,lazio,maradona,17) partita(napoli,fiorentina,maradona,10) partita(napoli,genoa,maradona,3) partita(genoa,inter,marassi,6) partita(genoa,milan,marassi,10) partita(genoa,juventus,marassi,16) partita(genoa,atalanta,marassi,17) partita(genoa,bologna,marassi,8) partita(genoa,roma,marassi,11) partita(genoa,lazio,marassi,4) partita(genoa,fiorentina,marassi,12) partita(genoa,napoli,marassi,15)
SATISFIABLE

Models       : 1+
Calls        : 1
Time         : 0.032s (Solving: 0.00s 1st Model: 0.00s Unsat: 0.00s)
CPU Time     : 0.032s
